fcc Si:
 3.9
 0.5 0.5 0.0
 0.0 0.5 0.5
 0.5 0.0 0.5
   1
cartesian
0 0 0
