Ti4 Se8
1.0
9.016744 -1.246465 -0.754286
-1.781662 6.916359 -0.085675
-0.326822 -0.043956 3.253763
Ti Se
4 8
direct
0.998463 0.630565 0.750018 Ti
0.430212 0.791722 0.966752 Ti
0.237689 0.205523 0.369933 Ti
0.669566 0.366189 0.586200 Ti
0.447151 0.163956 0.974706 Se
0.878476 0.322672 0.189762 Se
0.789619 0.673953 0.146434 Se
0.220725 0.833308 0.361602 Se
0.188130 0.443511 0.844884 Se
0.650925 0.986898 0.576090 Se
0.017048 0.010084 0.760450 Se
0.480045 0.553803 0.491927 Se
