 C  H 
 1.0000000000000000
     7.9000000000000004    0.0000000000000000    0.0000000000000000
     0.4438234745934477    6.0437257319802153    0.0000000000000000
    -6.1525681157834553   -2.8584023162169716   14.5015703211510960
  44  28
Cartesian
 -1.3242285103503846 -1.0530554020366913  5.9035892777406112
  3.5154838691603776  4.2383788177999344  8.5979810434104849
  6.3927348943282629  3.6554574888785778  4.0401374914726960
 -4.2014795355182706 -0.4701340731153347 10.4614328296784009
 -1.5061964945427213  3.8965312018337679  5.3742819610185961
  3.6974518533527139 -0.7112077860705232  9.1272883601324999
 -0.7389271543278361 -0.1753171764688375  5.0624981991138478
  2.9301825131378290  3.3606405922320817  9.4390721220372491
 -0.7025571455730466 -0.3518462666956115  3.6369938365446952
  2.8938125043830394  3.5371696824588557 10.8645764846064008
 -0.0856055278214676  0.4558333470852411  2.7465974188260178
  2.2768608866314612  2.7294900686780021 11.7549729023250791
 -0.0904063585655914  0.3032100970707062  1.3776491805093540
  2.2816617173755840  2.8821133186925372 13.1239211406417429
  0.6176199860485815  1.1704040632565864  0.4858026057585618
  1.5736353727614103  2.0149193525066575 14.0157677153925349
  7.7611857220959095  5.1400891733367402  0.8222390372092672
 -5.5699303632859172 -1.9547657575734969 13.6793312839418295
  7.0603449225669976  4.2884052155582362  1.7764423643410092
 -4.8690895637570053 -1.1030817997949922 12.7251279568100859
 -0.8271470522367835  4.5132262532569873  3.1163874620153704
  3.0184024110467762 -1.3279028374937438 11.3851828591357265
  2.2301331563089448  2.3175052724147647  5.8209303269100499
 -0.0388777974989524  0.8678181433484785  8.6806399942410462
  2.2579379916143987  3.1734843595036395  4.7652160075302499
 -0.0666826328044053  0.0118390562596042  9.7363543136208452
  2.8791555942894171  2.8555581163443637  3.5296822161681769
 -0.6879002354794242  0.3297652994188804 10.9718881049829182
  2.8935772713689167  3.7547251076039498  2.4449647561460748
 -0.7023219125589245 -0.5694016918407059 12.0566055650050217
  3.5484385277032673  3.4218857027744511  1.2268328491693827
 -1.3571831688932749 -0.2365622870112069 13.2747374719817124
  3.5977655150069685  4.2854274043253078  0.1450157032115110
 -1.4065101561969762 -1.1001039885620643 14.3565546179395849
  4.1458629903306825  2.0774660080705338  1.0934184022147926
 -1.9546076315206888  1.1078574076927101 13.4081519189363032
  4.0306849275102969  1.2338929047871960  2.1505828786267074
 -1.8394295687003039  1.9514305109760473 12.3509874425243886
  3.5093428802050428  1.5377308148611599  3.3962677692135865
 -1.3180875213950503  1.6475926009020838 11.1053025519375090
  3.3841680579471154  0.6688478364813844  4.4867858573641488
 -1.1929126991371224  2.5164755792818592 10.0147844637869472
  2.8717182601457281  0.9855242536263399  5.6918663510518055
 -0.6804629013357364  2.1997991621369040  8.8097039700992905
 -1.3311251895179952 -0.8519457777343016  6.9897568947948283
  3.5223805483279889  4.0372691934975453  7.5118134263562677
  5.9385162538803984  2.7455958630542034  3.6398941506089253
 -3.7472608950704056  0.4397275527090400 10.8616761705421716
 -2.0002751191250212  3.1993033600704690  6.0906595348834598
  4.1915304779350135 -0.0139799443072251  8.4109107862676371
 -0.2025661013094050  0.7192465082019037  5.3655810188259059
  2.3938214601193972  2.4660769075613396  9.1359893023251910
  0.3970074861037036  1.3169042550303494  3.1613423300109389
  1.7942478727062896  1.8684191607328944 11.3402279911401571
  1.0651574427400372  2.0134661736876027  0.8845957895902168
  1.1260979160699542  1.1718572420756410 13.6169745315608797
  6.6017615267822576  3.3763306408587668  1.4211538914728075
 -4.4105061679722652 -0.1910072250955231 13.0804164296782890
  1.7395974617091277  2.6371616086358611  6.8882459025467702
  0.4516578971008647  0.5481618071273828  7.6133244186043258
  1.8487711050407531  4.1977332734464374  4.8580260575856178
  0.3424842537692394 -1.0124098576831946  9.6435442635654791
  2.4602007687106249  4.7673769517321070  2.5812795171648948
 -0.2689454099006330 -1.5820535359688634 11.9202908039862017
  3.1304200596487188  5.3036166779421112  0.2900314064230219
 -0.9391647008387256 -2.1182932621788679 14.2115389147280737
  4.4891929689164689  0.2226543472231324  2.0592229856034554
 -2.2979376101064748  2.9626690685401114 12.4423473355476393
  3.8408757585660531 -0.3371064397157005  4.4084773776299331
 -1.6496203997560608  3.5224298554789448 10.0930929435211620
  2.8604998643173585  0.3067310697284690  6.5692113554814471
 -0.6692445055073654  2.8785923460347749  7.9323589656696489
